TCS_Benchmarks/redos_fix/corpus1_output_distinct_1793_1792_1_0.smt2
(set-logic QF_S)
(declare-const x String)
(assert (str.in.re x (re.inter  (re.++ (re.*  (re.union (re.union (re.range "\u{00}" "\u{09}") (re.range "\u{0b}" "\u{0c}") (re.range "\u{0e}" "\u{84}") (re.range "\u{86}" "\u{ff}")) (re.union  (str.to_re "\u{0A}")  (str.to_re "\u{0D}"))) ) (re.+  (re.union (re.range "\u{30}" "\u{39}") (re.union  (str.to.re "\u{2e}") (re.range "\u{61}" "\u{7a}"))) ))  (re.++ (re.*  (re.union (re.union (re.range "\u{00}" "\u{09}") (re.range "\u{0b}" "\u{0c}") (re.range "\u{0e}" "\u{84}") (re.range "\u{86}" "\u{ff}")) (re.union  (str.to_re "\u{0A}")  (str.to_re "\u{0D}"))) ) (re.++  (re.++  (str.to.re "\u{76}") (re.++  (str.to.re "\u{65}") (re.++  (str.to.re "\u{72}") (re.++  (str.to.re "\u{73}") (re.++  (str.to.re "\u{69}") (re.++  (str.to.re "\u{6f}") (re.++  (str.to.re "\u{6e}") (re.++  (str.to.re "\u{3d}")  (str.to.re "\u{22}"))))))))) (re.+  (re.union (re.range "\u{30}" "\u{39}") (re.union  (str.to.re "\u{2e}") (re.range "\u{61}" "\u{7a}"))) ))) )))
(check-sat)
(get-model)