TCS_Benchmarks/redos_fix/corpus1_output_distinct_1793_1792_1_0.txt
((.|\n|\r)*)([0-9.a-z]+)
((.|\n|\r)*)(version=")([0-9.a-z]+)